Differential/diff_ivlbc_4.txt
22 seconds 
<gurobi.Var p0_0_12 (value 1.0)>
<gurobi.Var p0_1_13 (value 1.0)>
<gurobi.Var p0_1_14 (value 1.0)>
<gurobi.Var p0_1_15 (value 1.0)>
<gurobi.Var p0_2_0 (value 1.0)>
<gurobi.Var p0_2_1 (value 1.0)>
<gurobi.Var p0_2_2 (value 1.0)>
<gurobi.Var p0_2_4 (value 1.0)>
<gurobi.Var p0_2_5 (value 1.0)>
<gurobi.Var p0_2_7 (value 1.0)>
<gurobi.Var p0_2_8 (value 1.0)>
<gurobi.Var p0_2_10 (value 1.0)>
<gurobi.Var p0_2_11 (value 1.0)>
<gurobi.Var p0_3_3 (value 1.0)>
<gurobi.Var p0_3_6 (value 1.0)>
<gurobi.Var p0_3_9 (value 1.0)>
<gurobi.Var x0_48 (value 1.0)>
<gurobi.Var x0_49 (value 1.0)>
<gurobi.Var x0_51 (value 1.0)>
<gurobi.Var A0_12 (value 1.0)>
<gurobi.Var y0_48 (value 1.0)>
<gurobi.Var z0_48 (value 1.0)>
<gurobi.Var x1_52 (value 1.0)>
<gurobi.Var d0_105 (value 1.0)>
<gurobi.Var x1_56 (value 1.0)>
<gurobi.Var d0_113 (value 1.0)>
<gurobi.Var x1_60 (value 1.0)>
<gurobi.Var d0_121 (value 1.0)>
<gurobi.Var A1_13 (value 1.0)>
<gurobi.Var y1_53 (value 1.0)>
<gurobi.Var A1_14 (value 1.0)>
<gurobi.Var y1_57 (value 1.0)>
<gurobi.Var A1_15 (value 1.0)>
<gurobi.Var y1_61 (value 1.0)>
<gurobi.Var z1_13 (value 1.0)>
<gurobi.Var z1_25 (value 1.0)>
<gurobi.Var z1_37 (value 1.0)>
<gurobi.Var x2_1 (value 1.0)>
<gurobi.Var d1_3 (value 1.0)>
<gurobi.Var x2_5 (value 1.0)>
<gurobi.Var d1_11 (value 1.0)>
<gurobi.Var x2_9 (value 1.0)>
<gurobi.Var d1_19 (value 1.0)>
<gurobi.Var x2_17 (value 1.0)>
<gurobi.Var d1_35 (value 1.0)>
<gurobi.Var x2_21 (value 1.0)>
<gurobi.Var d1_43 (value 1.0)>
<gurobi.Var x2_29 (value 1.0)>
<gurobi.Var d1_59 (value 1.0)>
<gurobi.Var x2_33 (value 1.0)>
<gurobi.Var d1_67 (value 1.0)>
<gurobi.Var x2_41 (value 1.0)>
<gurobi.Var d1_83 (value 1.0)>
<gurobi.Var x2_45 (value 1.0)>
<gurobi.Var d1_91 (value 1.0)>
<gurobi.Var A2_0 (value 1.0)>
<gurobi.Var y2_0 (value 1.0)>
<gurobi.Var A2_1 (value 1.0)>
<gurobi.Var y2_4 (value 1.0)>
<gurobi.Var A2_2 (value 1.0)>
<gurobi.Var y2_8 (value 1.0)>
<gurobi.Var A2_4 (value 1.0)>
<gurobi.Var y2_16 (value 1.0)>
<gurobi.Var A2_5 (value 1.0)>
<gurobi.Var y2_20 (value 1.0)>
<gurobi.Var A2_7 (value 1.0)>
<gurobi.Var y2_28 (value 1.0)>
<gurobi.Var A2_8 (value 1.0)>
<gurobi.Var y2_32 (value 1.0)>
<gurobi.Var A2_10 (value 1.0)>
<gurobi.Var y2_40 (value 1.0)>
<gurobi.Var A2_11 (value 1.0)>
<gurobi.Var y2_44 (value 1.0)>
<gurobi.Var z2_0 (value 1.0)>
<gurobi.Var z2_4 (value 1.0)>
<gurobi.Var z2_8 (value 1.0)>
<gurobi.Var z2_16 (value 1.0)>
<gurobi.Var z2_20 (value 1.0)>
<gurobi.Var z2_28 (value 1.0)>
<gurobi.Var z2_32 (value 1.0)>
<gurobi.Var z2_40 (value 1.0)>
<gurobi.Var z2_44 (value 1.0)>
<gurobi.Var d2_1 (value 1.0)>
<gurobi.Var d2_9 (value 1.0)>
<gurobi.Var d2_17 (value 1.0)>
<gurobi.Var x3_12 (value 1.0)>
<gurobi.Var d2_24 (value 1.0)>
<gurobi.Var d2_33 (value 1.0)>
<gurobi.Var d2_41 (value 1.0)>
<gurobi.Var x3_24 (value 1.0)>
<gurobi.Var d2_48 (value 1.0)>
<gurobi.Var d2_57 (value 1.0)>
<gurobi.Var d2_65 (value 1.0)>
<gurobi.Var x3_36 (value 1.0)>
<gurobi.Var d2_72 (value 1.0)>
<gurobi.Var d2_81 (value 1.0)>
<gurobi.Var d2_89 (value 1.0)>
<gurobi.Var A3_3 (value 1.0)>
<gurobi.Var y3_12 (value 1.0)>
<gurobi.Var y3_13 (value 1.0)>
<gurobi.Var y3_15 (value 1.0)>
<gurobi.Var A3_6 (value 1.0)>
<gurobi.Var y3_24 (value 1.0)>
<gurobi.Var y3_25 (value 1.0)>
<gurobi.Var y3_27 (value 1.0)>
<gurobi.Var A3_9 (value 1.0)>
<gurobi.Var y3_36 (value 1.0)>
<gurobi.Var y3_37 (value 1.0)>
<gurobi.Var y3_39 (value 1.0)>
<gurobi.Var z3_52 (value 1.0)>
<gurobi.Var z3_53 (value 1.0)>
<gurobi.Var z3_55 (value 1.0)>
<gurobi.Var z3_56 (value 1.0)>
<gurobi.Var z3_57 (value 1.0)>
<gurobi.Var z3_59 (value 1.0)>
<gurobi.Var z3_60 (value 1.0)>
<gurobi.Var z3_61 (value 1.0)>
<gurobi.Var z3_63 (value 1.0)>
<gurobi.Var x4_48 (value 1.0)>
<gurobi.Var d3_96 (value 1.0)>
<gurobi.Var x4_49 (value 1.0)>
<gurobi.Var d3_98 (value 1.0)>
<gurobi.Var x4_51 (value 1.0)>
<gurobi.Var d3_102 (value 1.0)>
<gurobi.Var d3_105 (value 1.0)>
<gurobi.Var d3_107 (value 1.0)>
<gurobi.Var d3_111 (value 1.0)>
<gurobi.Var d3_113 (value 1.0)>
<gurobi.Var d3_115 (value 1.0)>
<gurobi.Var d3_119 (value 1.0)>
<gurobi.Var d3_121 (value 1.0)>
<gurobi.Var d3_123 (value 1.0)>
<gurobi.Var d3_127 (value 1.0)>
